NAME : tsp_305_sol.txt
COMMENT : OR-Tools Guided Local Search
TYPE : TOUR
DIMENSION : 50
COST : 5902
STATUS : ROUTING_SUCCESS
GAP : 0.00% (Reference Solution)
TOUR_SECTION
1
41
21
27
19
30
50
38
49
48
14
11
13
18
46
32
25
42
5
4
24
12
33
9
37
28
15
22
23
3
17
47
45
2
43
40
8
36
10
34
26
6
31
20
44
35
29
39
7
16
-1
